n = 25;
lu = [|-58, 357
      |-223, -40
      |-492, -474
      |-104, 480
      |-108, 57
      |137, 200
      |-250, -118
      |-134, 380
      |-479, 548
      |-464, 625
      |230, 245
      |-518, 275
      |-601, 91
      |-107, 354
      |-344, 66
      |-160, 624
      |-337, 448
      |-423, 177
      |-549, -7
      |-452, 461
      |-277, 316
      |-315, -83
      |-521, 481
      |-595, -271
      |-316, 300|];
